\* Let's cut some rolls *\
Minimize
min: cut_typ_1 + cut_typ_10 + cut_typ_11 + cut_typ_12 + cut_typ_13
 + cut_typ_14 + cut_typ_15 + cut_typ_16 + cut_typ_17 + cut_typ_18 + cut_typ_19
 + cut_typ_2 + cut_typ_20 + cut_typ_21 + cut_typ_22 + cut_typ_23 + cut_typ_24
 + cut_typ_25 + cut_typ_26 + cut_typ_27 + cut_typ_28 + cut_typ_29 + cut_typ_3
 + cut_typ_30 + cut_typ_31 + cut_typ_32 + cut_typ_33 + cut_typ_34 + cut_typ_35
 + cut_typ_36 + cut_typ_37 + cut_typ_4 + cut_typ_5 + cut_typ_6 + cut_typ_7
 + cut_typ_8 + cut_typ_9
Subject To
Roll_1_Demand: cut_typ_1 + cut_typ_15 + cut_typ_16 + cut_typ_17 + cut_typ_18
 + cut_typ_19 + 2 cut_typ_2 + cut_typ_20 = 97
Roll_2_Demand: cut_typ_14 + cut_typ_15 + cut_typ_21 + cut_typ_22 + cut_typ_23
 + cut_typ_24 + cut_typ_25 + cut_typ_26 + cut_typ_27 + cut_typ_28
 + 2 cut_typ_29 + cut_typ_3 + 2 cut_typ_30 + 2 cut_typ_4 = 610
Roll_3_Demand: cut_typ_17 + cut_typ_18 + cut_typ_22 + 2 cut_typ_23
 + cut_typ_24 + cut_typ_25 + cut_typ_32 + cut_typ_33 + cut_typ_34 + cut_typ_35
 + 2 cut_typ_36 + 2 cut_typ_37 + cut_typ_5 + 2 cut_typ_6 + 3 cut_typ_7 = 305
Roll_4_Demand: 3 cut_typ_10 + 4 cut_typ_11 + 5 cut_typ_12 + 6 cut_typ_13
 + 7 cut_typ_14 + cut_typ_16 + cut_typ_18 + cut_typ_19 + 2 cut_typ_20
 + 3 cut_typ_21 + cut_typ_24 + 2 cut_typ_25 + cut_typ_26 + 2 cut_typ_27
 + 3 cut_typ_28 + 4 cut_typ_29 + cut_typ_30 + 2 cut_typ_31 + cut_typ_32
 + 2 cut_typ_33 + 3 cut_typ_34 + 4 cut_typ_35 + cut_typ_36 + 2 cut_typ_37
 + cut_typ_8 + 2 cut_typ_9 = 211
Bounds
0 <= cut_typ_1
0 <= cut_typ_10
0 <= cut_typ_11
0 <= cut_typ_12
0 <= cut_typ_13
0 <= cut_typ_14
0 <= cut_typ_15
0 <= cut_typ_16
0 <= cut_typ_17
0 <= cut_typ_18
0 <= cut_typ_19
0 <= cut_typ_2
0 <= cut_typ_20
0 <= cut_typ_21
0 <= cut_typ_22
0 <= cut_typ_23
0 <= cut_typ_24
0 <= cut_typ_25
0 <= cut_typ_26
0 <= cut_typ_27
0 <= cut_typ_28
0 <= cut_typ_29
0 <= cut_typ_3
0 <= cut_typ_30
0 <= cut_typ_31
0 <= cut_typ_32
0 <= cut_typ_33
0 <= cut_typ_34
0 <= cut_typ_35
0 <= cut_typ_36
0 <= cut_typ_37
0 <= cut_typ_4
0 <= cut_typ_5
0 <= cut_typ_6
0 <= cut_typ_7
0 <= cut_typ_8
0 <= cut_typ_9
Generals
cut_typ_1
cut_typ_10
cut_typ_11
cut_typ_12
cut_typ_13
cut_typ_14
cut_typ_15
cut_typ_16
cut_typ_17
cut_typ_18
cut_typ_19
cut_typ_2
cut_typ_20
cut_typ_21
cut_typ_22
cut_typ_23
cut_typ_24
cut_typ_25
cut_typ_26
cut_typ_27
cut_typ_28
cut_typ_29
cut_typ_3
cut_typ_30
cut_typ_31
cut_typ_32
cut_typ_33
cut_typ_34
cut_typ_35
cut_typ_36
cut_typ_37
cut_typ_4
cut_typ_5
cut_typ_6
cut_typ_7
cut_typ_8
cut_typ_9
End
